%% Layout for the paper
%% It produces 2 plates
%
%% 2020/Nov/20: It takes about 2min 33sec
%% 2021/Jan/18: It takes about 1min 4sec

%% Plate dimentions: (this is a 384-well plate)
num_rows = 8; %% height
num_cols = 12; %% width

vertical_cell_lines	 = 1;
horizontal_cell_lines = 1;
allow_empty_wells = false;
size_empty_edge = 1;

% New and used!
concentrations_on_different_rows = true;
concentrations_on_different_columns = true;

% New and unused! (Restriction: replicates_on_different_plates /\ replicates_on_same_plate == false)
replicates_on_different_plates = true;
replicates_on_same_plate = false;


%%% Compounds %%%
compounds = 18; %% number of drugs/compounds
compound_replicates	 = [2 | i in 1..compounds];
compound_concentrations	 = [3 | i in 1..compounds]; 

compound_names = ["comp-\(i)" | i in 1..compounds];

compound_concentration_names = [|"1", "10", "50"
|"1", "10", "50"
|"1", "10", "50"
|"1", "10", "50"
|"1", "10", "50"
|"1", "10", "50"
|"1", "10", "50"
|"1", "10", "50"
|"1", "10", "50"
|"1", "10", "50"
|"1", "10", "50"
|"1", "10", "50"
|"1", "10", "50"
|"1", "10", "50"
|"1", "10", "50"
|"1", "10", "50"
|"1", "10", "50"
|"1", "10", "50"|];

compound_concentration_indicators = ["" | i in 1..max(compound_concentrations)]; %% Used for drawing plate in latex

%%% Combinations %%%
combinations = 0;
combination_concentrations = 0;
combination_names = [];

combination_concentration_names = [];

%%% Controls %%%
num_controls = 2;
control_concentrations = [1 | i in 1..num_controls];

control_names = ["pos","neg"];

control_replicates = [6,6];
  
control_concentration_names = [|""|""|];
 
